33688
0 1 0 1 1 0 0 1 0 0 0 0 0 0 0 1 0 0 1 0 0 1 0 0 0 0 1 0 0 1 
18 4 21 18 15 4 15 18 18 18 4 26 3 1 26 18 1 3 18 18 18 21 1 21 1 18 21 26 29 15 4 4 4 21 18 4 26 3 21 15 18 26 4 29 3 26 3 21 26 26 21 21 21 15 3 4 7 26 18 7 29 15 7 26 3 18 1 26 4 7 7 4 4 26 1 1 3 1 3 21 1 21 26 7 29 3 4 15 18 7 18 4 7 7 21 3 18 4 21 26 26 15 7 7 4 21 4 21 18 3 26 29 18 4 7 3 18 7 26 3 26 18 26 4 26 15 15 7 26 21 18 21 7 3 1 26 3 3 18 26 7 18 4 7 7 21 21 15 18 7 15 1 1 21 3 7 21 15 3 3 1 18 3 21 1 18 1 4 3 21 1 3 26 26 26 15 21 3 29 3 21 15 21 4 7 26 7 1 18 21 21 21 4 4 7 4 7 15 3 26 
